
<<< setup


<<< generate

Version identifier: 12.10.0.0 | 2019-11-26 | 843d4de2ae
CPXPARAM_TimeLimit                               1200
Tried aggregator 2 times.
MIP Presolve eliminated 5186709 rows and 2954827 columns.
MIP Presolve modified 417554 coefficients.
Aggregator did 1342 substitutions.
Reduced MIP has 62599 rows, 62881 columns, and 384159 nonzeros.
Reduced MIP has 62831 binaries, 0 generals, 0 SOSs, and 0 indicators.
Presolve time = 6.27 sec. (3751.65 ticks)
Found incumbent of value 0.000000 after 9.98 sec. (4855.04 ticks)
Probing fixed 1008 vars, tightened 0 bounds.
Probing time = 5.11 sec. (1036.78 ticks)
Tried aggregator 1 time.
Detecting symmetries...
MIP Presolve eliminated 973 rows and 1009 columns.
Reduced MIP has 61626 rows, 61872 columns, and 377810 nonzeros.
Reduced MIP has 61822 binaries, 0 generals, 0 SOSs, and 0 indicators.
Presolve time = 0.47 sec. (233.69 ticks)
Probing fixed 1118 vars, tightened 0 bounds.
Probing time = 6.45 sec. (1628.24 ticks)
Clique table members: 215834.
MIP emphasis: balance optimality and feasibility.
MIP search method: dynamic search.
Parallel mode: deterministic, using up to 4 threads.
Root relaxation solution time = 4.13 sec. (2173.40 ticks)

        Nodes                                         Cuts/
   Node  Left     Objective  IInf  Best Integer    Best Bound    ItCnt     Gap

*     0+    0                            0.0000   136153.0000              --- 
      0     0   136153.0000   866        0.0000   136153.0000    10085     --- 
      0     0   136153.0000   866        0.0000      Cuts: 34    20508     --- 
      0     0   136153.0000   866        0.0000    Cuts: 5741    58352     --- 
      0     0   136153.0000   866        0.0000     Cuts: 387    90375     --- 
*     0+    0                          269.0000   136153.0000              --- 
      0     0        cutoff            269.0000   136153.0000    90375     --- 
Heuristic still looking.
Heuristic still looking.
*     0+    0                         2000.0000   136153.0000              --- 
      0     2   136153.0000   837     2000.0000   136153.0000   116352     --- 
Elapsed time = 812.30 sec. (466787.75 ticks, tree = 0.02 MB, solutions = 3)
      1     3   136153.0000   794     2000.0000   136153.0000   128666     --- 
      2     4   136153.0000   875     2000.0000   136153.0000   135312     --- 
      3     5   136153.0000   811     2000.0000   136153.0000   136505     --- 
      4     6   136153.0000   864     2000.0000   136153.0000   138716     --- 
      5     7   136153.0000   844     2000.0000   136153.0000   141114     --- 
      6     4   136153.0000   814     2000.0000   136153.0000   128938     --- 
      7     8   136153.0000   876     2000.0000   136153.0000   152885     --- 
      8    10   136153.0000   861     2000.0000   136153.0000   154986     --- 
      9    11   136153.0000   885     2000.0000   136153.0000   157251     --- 
     10    12   136153.0000   863     2000.0000   136153.0000   157607     --- 
Elapsed time = 902.28 sec. (503425.52 ticks, tree = 0.19 MB, solutions = 3)
     11     3   136153.0000   951     2000.0000   136153.0000   117393     --- 
     13    13   136153.0000   859     2000.0000   136153.0000   171144     --- 
     14    12   136153.0000   993     2000.0000   136153.0000   192303     --- 
     16    14   136153.0000   903     2000.0000   136153.0000   194930     --- 
     18    16   136153.0000  1092     2000.0000   136153.0000   213747     --- 
     23    21   136153.0000   938     2000.0000   136153.0000   243036     --- 
     27    22   136153.0000   991     2000.0000   136153.0000   237167     --- 
     29    23   136153.0000  1028     2000.0000   136153.0000   276699     --- 
     33    24   136153.0000   864     2000.0000   136153.0000   239743     --- 
     38    27   136153.0000   950     2000.0000   136153.0000   280918     --- 
Elapsed time = 960.36 sec. (531789.62 ticks, tree = 2.32 MB, solutions = 3)
     40    29   136153.0000   978     2000.0000   136153.0000   286118     --- 
     47    43   136153.0000   936     2000.0000   136153.0000   378106     --- 
     49    35   136153.0000  1028     2000.0000   136153.0000   335024     --- 
     52    31   136153.0000  1072     2000.0000   136153.0000   299216     --- 
     54    37   136153.0000  1015     2000.0000   136153.0000   345438     --- 
     58    48   136153.0000   951     2000.0000   136153.0000   408308     --- 
     62    39   136153.0000  1030     2000.0000   136153.0000   356375     --- 
     66    51   136153.0000   978     2000.0000   136153.0000   412899     --- 
     70    43   136153.0000   951     2000.0000   136153.0000   398988     --- 
     71    59   136153.0000  1028     2000.0000   136153.0000   464840     --- 
Elapsed time = 994.66 sec. (546809.51 ticks, tree = 2.80 MB, solutions = 3)
     75    53   136153.0000   977     2000.0000   136153.0000   422939     --- 
     79    55   136153.0000   999     2000.0000   136153.0000   432053     --- 
     81    63   136153.0000  1012     2000.0000   136153.0000   491155     --- 
     83    52   136153.0000   965     2000.0000   136153.0000   446436     --- 
     85    63   136153.0000   982     2000.0000   136153.0000   475349     --- 
     89    83   136153.0000  1003     2000.0000   136153.0000   642376     --- 
     92    66   136153.0000   965     2000.0000   136153.0000   485776     --- 
     95    75   136153.0000   933     2000.0000   136153.0000   551170     --- 
     98    82   136153.0000   813     2000.0000   136153.0000   611793     --- 
    102    83   136153.0000   794     2000.0000   136153.0000   611970     --- 
Elapsed time = 1032.05 sec. (563388.01 ticks, tree = 4.79 MB, solutions = 3)
    105    84   136153.0000  1130     2000.0000   136153.0000   613994     --- 
    108   101   136153.0000   738     2000.0000   136153.0000   729021     --- 
    109    89   136153.0000   870     2000.0000   136153.0000   682550     --- 
    110   102   136153.0000   987     2000.0000   136153.0000   730438     --- 
    112   103   136153.0000   741     2000.0000   136153.0000   730465     --- 
    113    96   136153.0000   951     2000.0000   136153.0000   725120     --- 
    114   104   136153.0000   953     2000.0000   136153.0000   731954     --- 
    115   106   136153.0000   735     2000.0000   136153.0000   768309     --- 
    117   106   136153.0000   802     2000.0000   136153.0000   781119     --- 
    120   112   136153.0000   761     2000.0000   136153.0000   791318     --- 
Elapsed time = 1109.38 sec. (594911.75 ticks, tree = 10.80 MB, solutions = 3)
    121   112   136153.0000   875     2000.0000   136153.0000   813172     --- 
    123   112   136153.0000   795     2000.0000   136153.0000   828986     --- 
    126   116   136153.0000   733     2000.0000   136153.0000   875400     --- 
    127   117   136153.0000   869     2000.0000   136153.0000   887836     --- 
    129   107   136153.0000   794     2000.0000   136153.0000   797299     --- 
    131   115   136153.0000   796     2000.0000   136153.0000   850994     --- 
    135   118   136153.0000   996     2000.0000   136153.0000   955493     --- 
    142   114   136153.0000  1089     2000.0000   136153.0000   900514     --- 
    144   122   136153.0000   778     2000.0000   136153.0000   949735     --- 
    146   120   136153.0000  1024     2000.0000   136153.0000   981844     --- 
Elapsed time = 1175.84 sec. (624157.72 ticks, tree = 10.89 MB, solutions = 3)
    148   124   136153.0000   826     2000.0000   136153.0000   990728     --- 
    153   125   136153.0000  1034     2000.0000   136153.0000  1005868     --- 
    158   128   136153.0000   765     2000.0000   136153.0000  1034572     --- 
    159   127   136153.0000   975     2000.0000   136153.0000  1021833     --- 
    162   125   136153.0000  1167     2000.0000   136153.0000  1008331     --- 
    168   118   136153.0000   895     2000.0000   136153.0000   967690     --- 
    169   127   136153.0000  1213     2000.0000   136153.0000  1019188     --- 

Implied bound cuts applied:  734
Flow cuts applied:  40
Mixed integer rounding cuts applied:  35

Root node processing (before b&c):
  Real time             =  780.44 sec. (443927.16 ticks)
Parallel b&c, 4 threads:
  Real time             =  420.26 sec. (193464.38 ticks)
  Sync time (average)   =   62.15 sec.
  Wait time (average)   =    0.00 sec.
                          ------------
Total (root+branch&cut) = 1200.70 sec. (637391.53 ticks)

<<< solve


OBJECTIVE: 2000

<<< post process


<<< done

